(set-logic UFDTLIRA)
(set-option :produce-models true)
(declare-fun M (Int) Int)
(declare-fun k () Int)
(assert (= (M 0) 1))
(assert (= (M 14) 1000))
(assert (= k 14))
(assert (or (= (M 1) (+ (M (- 1 1)) 1)) (= (M 1) (* (M (- 1 1)) 2))))
(assert (or (= (M 2) (+ (M (- 2 1)) 1)) (= (M 2) (* (M (- 2 1)) 2))))
(assert (or (= (M 3) (+ (M (- 3 1)) 1)) (= (M 3) (* (M (- 3 1)) 2))))
(assert (or (= (M 4) (+ (M (- 4 1)) 1)) (= (M 4) (* (M (- 4 1)) 2))))
(assert (or (= (M 5) (+ (M (- 5 1)) 1)) (= (M 5) (* (M (- 5 1)) 2))))
(assert (or (= (M 6) (+ (M (- 6 1)) 1)) (= (M 6) (* (M (- 6 1)) 2))))
(assert (or (= (M 7) (+ (M (- 7 1)) 1)) (= (M 7) (* (M (- 7 1)) 2))))
(assert (or (= (M 8) (+ (M (- 8 1)) 1)) (= (M 8) (* (M (- 8 1)) 2))))
(assert (or (= (M 9) (+ (M (- 9 1)) 1)) (= (M 9) (* (M (- 9 1)) 2))))
(assert (or (= (M 10) (+ (M (- 10 1)) 1)) (= (M 10) (* (M (- 10 1)) 2))))
(assert (or (= (M 11) (+ (M (- 11 1)) 1)) (= (M 11) (* (M (- 11 1)) 2))))
(assert (or (= (M 12) (+ (M (- 12 1)) 1)) (= (M 12) (* (M (- 12 1)) 2))))
(assert (or (= (M 13) (+ (M (- 13 1)) 1)) (= (M 13) (* (M (- 13 1)) 2))))
(assert (or (= (M 14) (+ (M (- 14 1)) 1)) (= (M 14) (* (M (- 14 1)) 2))))

(check-sat)(get-model)